p cnf 395 1126
1 -2 0
2 -1 0
3 -4 0
4 -3 0
5 -6 0
6 -5 0
7 -8 0
8 -7 0
9 -10 0
10 -9 0
11 -12 0
12 -11 0
13 -14 0
14 -13 0
15 -16 0
16 -15 0
17 -18 0
18 -17 0
19 -20 0
20 -19 0
21 -22 0
22 -21 0
23 -24 0
24 -23 0
25 -26 0
26 -25 0
27 -28 0
28 -27 0
29 -30 0
30 -29 0
31 -32 0
32 -31 0
33 -34 0
34 -33 0
35 -36 0
36 -35 0
37 -38 0
38 -37 0
39 -40 0
40 -39 0
41 -42 0
42 -41 0
43 -44 0
44 -43 0
45 -46 0
46 -45 0
47 -48 0
48 -47 0
49 -50 0
50 -49 0
51 -52 0
52 -51 0
53 -54 0
54 -53 0
55 -56 0
56 -55 0
57 -58 0
58 -57 0
59 -60 0
60 -59 0
61 -62 0
62 -61 0
63 -64 0
64 -63 0
65 -66 0
66 -65 0
67 -68 0
68 -67 0
69 -70 0
70 -69 0
71 -72 0
72 -71 0
73 -74 0
74 -73 0
75 -76 0
76 -75 0
77 -78 0
78 -77 0
79 -80 0
80 -79 0
81 -82 0
82 -81 0
83 -84 0
84 -83 0
85 -86 0
86 -85 0
87 -88 0
88 -87 0
89 -90 0
90 -89 0
91 -92 0
92 -91 0
93 -94 0
94 -93 0
95 -96 0
96 -95 0
97 -98 0
98 -97 0
99 -100 0
100 -99 0
101 -102 0
102 -101 0
103 -104 0
104 -103 0
105 -106 0
106 -105 0
107 -108 0
108 -107 0
109 -110 0
110 -109 0
111 -112 0
112 -111 0
113 -114 0
114 -113 0
115 -116 0
116 -115 0
117 -118 0
118 -117 0
119 -120 0
120 -119 0
121 -122 0
122 -121 0
123 -124 0
124 -123 0
125 -126 0
126 -125 0
127 -128 0
128 -127 0
129 -130 0
130 -129 0
131 -132 0
132 -131 0
133 -134 0
134 -133 0
135 -136 0
136 -135 0
137 -138 0
138 -137 0
139 -140 0
140 -139 0
141 -142 0
142 -141 0
143 -144 0
144 -143 0
145 -146 0
146 -145 0
147 -148 0
148 -147 0
149 -150 0
150 -149 0
151 -152 0
152 -151 0
153 -154 0
154 -153 0
155 -156 0
156 -155 0
157 -158 0
158 -157 0
159 -160 0
160 -159 0
161 -162 0
162 -161 0
163 -164 0
164 -163 0
165 -166 0
166 -165 0
167 -168 0
168 -167 0
169 -170 0
170 -169 0
171 -172 0
172 -171 0
173 -174 0
174 -173 0
175 -176 0
176 -175 0
177 -178 0
178 -177 0
179 -180 0
180 -179 0
181 -182 0
182 -181 0
183 -184 0
184 -183 0
185 -186 0
186 -185 0
187 -188 0
188 -187 0
189 -190 0
190 -189 0
191 -192 0
192 -191 0
193 -194 0
194 -193 0
195 -196 0
196 -195 0
197 -198 0
198 -197 0
199 -200 0
200 -199 0
201 -202 0
202 -201 0
203 -204 0
204 -203 0
205 -206 0
206 -205 0
207 -208 0
208 -207 0
209 -210 0
210 -209 0
211 -212 0
212 -211 0
213 -214 0
214 -213 0
215 -216 0
216 -215 0
217 -218 0
218 -217 0
219 -220 0
220 -219 0
221 -222 0
222 -221 0
223 -224 0
224 -223 0
225 -226 0
226 -225 0
227 -228 0
228 -227 0
229 -230 0
230 -229 0
231 -232 0
232 -231 0
233 -234 0
234 -233 0
235 -236 0
236 -235 0
237 -238 0
238 -237 0
239 -240 0
240 -239 0
241 -242 0
242 -241 0
243 -244 0
244 -243 0
245 -246 0
246 -245 0
247 -248 0
248 -247 0
249 -250 0
250 -249 0
251 -252 0
252 -251 0
253 -254 0
254 -253 0
255 -256 0
256 -255 0
257 -258 0
258 -257 0
259 -260 0
260 -259 0
261 -262 0
262 -261 0
263 -264 0
264 -263 0
265 -266 0
266 -265 0
265 -267 -257 0
257 -267 -265 0
-265 267 -257 0
257 265 267 0
-267 0
129 -1 0
1 -129 0
-193 0
129 268 0
193 268 0
-129 -193 -268 0
-269 131 195 0
-268 -269 131 0
-268 -269 195 0
269 -131 -195 0
-131 269 268 0
269 268 -195 0
133 197 -270 0
133 269 -270 0
197 269 -270 0
270 -133 -197 0
270 -133 -269 0
270 -197 -269 0
-271 135 199 0
-271 270 135 0
-271 270 199 0
271 -135 -199 0
271 -135 -270 0
271 -199 -270 0
201 137 -272 0
271 137 -272 0
201 271 -272 0
272 -137 -201 0
272 -137 -271 0
272 -201 -271 0
-273 139 203 0
-273 272 203 0
-273 139 272 0
273 -203 -139 0
273 -203 -272 0
273 -139 -272 0
-274 141 205 0
-274 273 205 0
-274 273 141 0
-205 -141 274 0
274 -205 -273 0
274 -141 -273 0
143 -275 207 0
-275 207 274 0
143 -275 274 0
-207 -143 275 0
275 -207 -274 0
275 -143 -274 0
145 -276 209 0
-276 209 275 0
145 -276 275 0
-209 276 -145 0
276 -209 -275 0
276 -145 -275 0
-277 147 211 0
276 -277 211 0
276 -277 147 0
-211 277 -147 0
277 -211 -276 0
277 -147 -276 0
-278 -277 213 0
-278 -213 277 0
278 -213 -277 0
278 213 277 0
-279 149 85 278 0
-279 85 -278 -149 0
-279 149 -278 -85 0
-279 278 -85 -149 0
279 -85 -149 -278 0
279 149 278 -85 0
279 85 278 -149 0
279 149 85 -278 0
149 213 -280 0
213 -280 277 0
149 -280 277 0
-213 280 -149 0
280 -213 -277 0
280 -149 -277 0
215 -281 151 0
215 280 -281 0
280 -281 151 0
-215 -151 281 0
281 -215 -280 0
281 -151 -280 0
217 -281 -282 0
-217 281 -282 0
282 -217 -281 0
217 281 282 0
153 89 -283 282 0
-153 89 -283 -282 0
153 -89 -283 -282 0
-153 -89 -283 282 0
283 -89 -153 -282 0
153 283 -89 282 0
-153 283 89 282 0
153 283 89 -282 0
215 -284 -280 0
-284 -215 280 0
284 -215 -280 0
215 284 280 0
-285 284 87 151 0
-285 -284 87 -151 0
-285 -284 -87 151 0
-285 284 -87 -151 0
285 -87 -151 -284 0
285 284 -87 151 0
285 284 87 -151 0
285 -284 87 151 0
153 217 -286 0
153 -286 281 0
217 -286 281 0
286 -153 -217 0
286 -153 -281 0
286 -217 -281 0
-287 219 155 0
286 -287 155 0
286 -287 219 0
287 -155 -219 0
287 -155 -286 0
287 -219 -286 0
-288 221 157 0
-288 287 221 0
-288 287 157 0
-221 -157 288 0
288 -221 -287 0
288 -157 -287 0
223 -289 159 0
223 -289 288 0
-289 288 159 0
-223 289 -159 0
289 -223 -288 0
289 -159 -288 0
161 225 -290 0
225 289 -290 0
161 289 -290 0
290 -225 -161 0
290 -225 -289 0
290 -161 -289 0
163 -291 227 0
290 -291 227 0
290 163 -291 0
-227 291 -163 0
291 -227 -290 0
291 -163 -290 0
165 229 -292 0
229 291 -292 0
165 291 -292 0
-229 -165 292 0
292 -229 -291 0
292 -165 -291 0
231 167 -293 0
231 292 -293 0
167 292 -293 0
-231 293 -167 0
293 -231 -292 0
293 -167 -292 0
233 169 -294 0
233 -294 293 0
169 -294 293 0
-233 -169 294 0
294 -233 -293 0
294 -169 -293 0
235 -295 171 0
-295 294 171 0
235 -295 294 0
295 -171 -235 0
295 -171 -294 0
295 -235 -294 0
173 237 -296 0
237 -296 295 0
173 -296 295 0
296 -237 -173 0
296 -237 -295 0
296 -173 -295 0
175 239 -297 0
175 296 -297 0
296 239 -297 0
297 -175 -239 0
297 -175 -296 0
297 -239 -296 0
177 241 -298 0
177 -298 297 0
241 -298 297 0
298 -177 -241 0
298 -177 -297 0
298 -241 -297 0
243 179 -299 0
179 298 -299 0
243 298 -299 0
299 -179 -243 0
299 -179 -298 0
299 -243 -298 0
245 181 -300 0
299 245 -300 0
299 181 -300 0
-245 300 -181 0
300 -245 -299 0
300 -181 -299 0
-301 247 183 0
-301 183 300 0
-301 247 300 0
301 -183 -247 0
301 -183 -300 0
301 -247 -300 0
249 -302 185 0
301 -302 185 0
301 249 -302 0
302 -185 -249 0
302 -185 -301 0
302 -249 -301 0
-303 251 187 0
302 -303 187 0
302 -303 251 0
303 -187 -251 0
303 -187 -302 0
303 -251 -302 0
253 -304 -303 0
-304 -253 303 0
304 -253 -303 0
253 304 303 0
189 -305 304 125 0
-305 -304 -189 125 0
189 -305 -304 -125 0
-305 304 -189 -125 0
305 -125 -189 -304 0
189 304 305 -125 0
304 305 -189 125 0
189 305 -304 125 0
189 253 -306 0
253 303 -306 0
189 303 -306 0
306 -253 -189 0
306 -253 -303 0
306 -189 -303 0
-307 255 -306 0
-307 306 -255 0
307 -255 -306 0
307 306 255 0
307 127 191 -308 0
-307 127 -191 -308 0
-307 191 -127 -308 0
307 -191 -127 -308 0
308 -127 -191 -307 0
307 191 -127 308 0
307 127 -191 308 0
-307 127 191 308 0
-268 -309 195 0
-309 268 -195 0
309 -195 -268 0
309 195 268 0
67 -310 309 131 0
-67 -310 -309 131 0
-131 -67 -310 309 0
67 -131 -310 -309 0
-131 -67 310 -309 0
67 -131 310 309 0
67 310 -309 131 0
-67 310 309 131 0
233 -311 -293 0
-233 -311 293 0
311 -233 -293 0
233 311 293 0
105 -312 311 169 0
105 -312 -311 -169 0
-312 -311 169 -105 0
-312 311 -169 -105 0
312 -105 -169 -311 0
312 311 169 -105 0
105 312 311 -169 0
105 312 -311 169 0
237 -313 -295 0
-237 -313 295 0
313 -237 -295 0
237 313 295 0
173 313 109 -314 0
109 -313 -314 -173 0
173 -313 -314 -109 0
313 -314 -109 -173 0
314 -109 -173 -313 0
173 313 -109 314 0
313 109 -173 314 0
173 109 -313 314 0
235 -315 -294 0
-235 -315 294 0
315 -235 -294 0
315 235 294 0
315 -316 107 171 0
-316 -171 -315 107 0
-316 -315 171 -107 0
315 -316 -171 -107 0
316 -107 -171 -315 0
315 316 171 -107 0
315 316 -171 107 0
316 -315 107 171 0
-290 227 -317 0
290 -227 -317 0
317 -227 -290 0
290 227 317 0
99 163 317 -318 0
99 -163 -318 -317 0
-99 163 -318 -317 0
-99 317 -163 -318 0
318 -99 -163 -317 0
-99 163 317 318 0
99 317 -163 318 0
99 163 318 -317 0
225 -319 -289 0
-319 289 -225 0
319 -225 -289 0
225 319 289 0
161 319 97 -320 0
97 -319 -320 -161 0
161 -319 -320 -97 0
319 -320 -97 -161 0
320 -97 -161 -319 0
161 319 320 -97 0
319 97 320 -161 0
161 97 -319 320 0
-321 231 -292 0
-321 -231 292 0
321 -231 -292 0
231 321 292 0
103 -322 167 321 0
-321 103 -322 -167 0
-321 -103 -322 167 0
-103 -322 321 -167 0
322 -103 -167 -321 0
-103 167 322 321 0
103 322 321 -167 0
-321 103 167 322 0
229 -291 -323 0
-229 291 -323 0
323 -229 -291 0
229 291 323 0
-324 165 323 101 0
-165 -324 -323 101 0
-324 165 -323 -101 0
-165 -324 323 -101 0
324 -101 -165 -323 0
165 324 323 -101 0
-165 324 323 101 0
165 324 -323 101 0
241 -325 -297 0
-241 -325 297 0
325 -241 -297 0
241 325 297 0
-326 177 113 325 0
-177 -326 113 -325 0
-113 -326 177 -325 0
-113 -177 -326 325 0
326 -113 -177 -325 0
-113 326 177 325 0
-177 326 113 325 0
326 177 113 -325 0
-327 -302 251 0
-327 302 -251 0
327 -251 -302 0
327 302 251 0
-328 327 123 187 0
-327 -328 -187 123 0
-327 -328 -123 187 0
-328 -123 327 -187 0
328 -123 -187 -327 0
328 -123 327 187 0
328 327 -187 123 0
-327 328 123 187 0
-329 245 -299 0
299 -329 -245 0
329 -245 -299 0
299 329 245 0
117 329 181 -330 0
117 -329 -181 -330 0
-117 -329 181 -330 0
-117 329 -181 -330 0
330 -117 -181 -329 0
-117 330 329 181 0
117 330 329 -181 0
117 330 -329 181 0
-274 207 -331 0
-207 -331 274 0
331 -207 -274 0
207 331 274 0
143 -332 79 331 0
-332 79 -331 -143 0
143 -332 -79 -331 0
-332 -79 331 -143 0
332 -79 -143 -331 0
143 332 -79 331 0
332 79 331 -143 0
143 332 79 -331 0
-273 -333 205 0
-205 273 -333 0
333 -205 -273 0
273 205 333 0
-334 141 77 333 0
-141 -333 -334 77 0
-333 -334 141 -77 0
-141 -334 -77 333 0
334 -77 -141 -333 0
334 141 -77 333 0
-141 334 77 333 0
-333 334 141 77 0
-276 -335 211 0
-211 276 -335 0
335 -211 -276 0
276 335 211 0
-336 335 147 83 0
-336 -335 83 -147 0
-336 -83 147 -335 0
-336 335 -83 -147 0
336 -83 -147 -335 0
336 335 -83 147 0
336 335 83 -147 0
336 147 -335 83 0
-337 -275 209 0
-209 -337 275 0
337 -209 -275 0
337 209 275 0
81 145 337 -338 0
81 -337 -145 -338 0
145 -337 -338 -81 0
337 -145 -338 -81 0
338 -81 -145 -337 0
145 337 338 -81 0
81 337 -145 338 0
81 145 -337 338 0
197 -339 -269 0
-339 269 -197 0
339 -197 -269 0
197 269 339 0
69 133 -340 339 0
69 -339 -133 -340 0
133 -69 -339 -340 0
-69 -133 -340 339 0
340 -69 -133 -339 0
133 340 -69 339 0
69 340 -133 339 0
69 133 340 -339 0
-272 203 -341 0
-203 272 -341 0
341 -203 -272 0
272 203 341 0
139 75 341 -342 0
-139 75 -341 -342 0
139 -75 -341 -342 0
-139 -75 341 -342 0
342 -75 -139 -341 0
342 139 -75 341 0
342 -139 75 341 0
342 139 75 -341 0
201 -271 -343 0
271 -201 -343 0
343 -201 -271 0
201 271 343 0
73 137 -344 343 0
73 -137 -344 -343 0
137 -73 -344 -343 0
-137 -73 -344 343 0
344 -73 -137 -343 0
137 -73 344 343 0
73 -137 344 343 0
73 137 344 -343 0
-345 -270 199 0
-345 270 -199 0
345 -199 -270 0
345 270 199 0
71 345 -346 135 0
71 -345 -135 -346 0
-71 -345 -346 135 0
-71 345 -135 -346 0
346 -71 -135 -345 0
-71 345 346 135 0
71 345 346 -135 0
71 -345 346 135 0
-296 239 -347 0
-239 296 -347 0
347 -239 -296 0
296 239 347 0
175 111 -348 347 0
-175 111 -348 -347 0
175 -111 -348 -347 0
-111 -175 -348 347 0
348 -111 -175 -347 0
175 -111 348 347 0
-175 111 348 347 0
175 111 348 -347 0
-286 219 -349 0
-219 286 -349 0
349 -219 -286 0
286 219 349 0
91 155 349 -350 0
-155 91 -349 -350 0
-91 155 -349 -350 0
-155 -91 349 -350 0
350 -91 -155 -349 0
-91 155 349 350 0
-155 91 349 350 0
91 155 -349 350 0
-288 223 -351 0
-223 288 -351 0
351 -223 -288 0
223 288 351 0
95 159 351 -352 0
95 -159 -351 -352 0
-95 159 -351 -352 0
-95 -159 351 -352 0
352 -95 -159 -351 0
-95 159 351 352 0
95 -159 351 352 0
95 159 -351 352 0
-287 221 -353 0
-221 287 -353 0
353 -221 -287 0
287 221 353 0
157 93 353 -354 0
-157 93 -353 -354 0
-93 157 -353 -354 0
-157 -93 353 -354 0
354 -93 -157 -353 0
-93 157 353 354 0
-157 93 353 354 0
157 93 -353 354 0
65 129 193 -355 0
129 -65 -193 -355 0
193 -129 -65 -355 0
65 -129 -193 -355 0
-129 -65 -193 355 0
65 193 -129 355 0
65 129 -193 355 0
129 193 -65 355 0
-301 249 -356 0
301 -249 -356 0
356 -249 -301 0
301 249 356 0
185 121 356 -357 0
-185 121 -356 -357 0
-121 185 -356 -357 0
-185 -121 356 -357 0
357 -121 -185 -356 0
-121 185 356 357 0
-185 121 356 357 0
185 121 -356 357 0
247 -300 -358 0
-247 300 -358 0
358 -247 -300 0
247 300 358 0
183 119 358 -359 0
-183 119 -358 -359 0
183 -119 -358 -359 0
-183 -119 358 -359 0
359 -119 -183 -358 0
183 -119 358 359 0
-183 119 358 359 0
183 119 -358 359 0
243 -298 -360 0
-243 298 -360 0
360 -243 -298 0
243 298 360 0
115 179 360 -361 0
-179 115 -360 -361 0
179 -115 -360 -361 0
-179 -115 360 -361 0
361 -115 -179 -360 0
179 -115 360 361 0
-179 115 360 361 0
115 179 -360 361 0
361 362 0
359 362 0
357 362 0
-355 362 0
354 362 0
352 362 0
350 362 0
348 362 0
346 362 0
344 362 0
342 362 0
340 362 0
338 362 0
336 362 0
334 362 0
332 362 0
330 362 0
328 362 0
326 362 0
324 362 0
322 362 0
320 362 0
318 362 0
316 362 0
314 362 0
312 362 0
-310 362 0
308 362 0
305 362 0
285 362 0
283 362 0
279 362 0
-279 -326 -316 -285 -336 -305 -328 -324 -312 -332 -344 -314 -348 -308 -334 -346 -322 -320 310 -338 -340 -342 -283 -330 -318 -350 -352 -354 355 -357 -359 -361 -362 0
-257 -362 0
127 -63 -363 0
63 -127 -363 0
-127 -63 363 0
127 63 363 0
-61 125 -364 0
61 -125 -364 0
-61 -125 364 0
61 125 364 0
123 -59 -365 0
59 -123 -365 0
-123 -59 365 0
59 123 365 0
121 -57 -366 0
57 -121 -366 0
-121 -57 366 0
57 121 366 0
-55 119 -367 0
-119 55 -367 0
-55 -119 367 0
119 55 367 0
117 -53 -368 0
-117 53 -368 0
-117 -53 368 0
117 53 368 0
115 -51 -369 0
-115 51 -369 0
-115 -51 369 0
115 51 369 0
113 -49 -370 0
49 -113 -370 0
-113 -49 370 0
49 113 370 0
111 -47 -371 0
-111 47 -371 0
-111 -47 371 0
47 111 371 0
109 -45 -372 0
-109 45 -372 0
-109 -45 372 0
109 45 372 0
-43 107 -373 0
43 -107 -373 0
-43 -107 373 0
43 107 373 0
105 -41 -374 0
41 -105 -374 0
-41 -105 374 0
41 105 374 0
103 -39 -375 0
-103 39 -375 0
-103 -39 375 0
103 39 375 0
-37 101 -376 0
-101 37 -376 0
-37 -101 376 0
101 37 376 0
99 -35 -377 0
-99 35 -377 0
-99 -35 377 0
99 35 377 0
97 -33 -378 0
33 -97 -378 0
-97 -33 378 0
33 97 378 0
95 -31 -379 0
-95 31 -379 0
-95 -31 379 0
95 31 379 0
93 -29 -380 0
-93 29 -380 0
-93 -29 380 0
29 93 380 0
91 -27 -381 0
-91 27 -381 0
-91 -27 381 0
91 27 381 0
89 -25 -382 0
-89 25 -382 0
-89 -25 382 0
89 25 382 0
87 -23 -383 0
-87 23 -383 0
-87 -23 383 0
87 23 383 0
-21 85 -384 0
-85 21 -384 0
-21 -85 384 0
85 21 384 0
-19 83 -385 0
19 -83 -385 0
-83 -19 385 0
19 83 385 0
81 -17 -386 0
17 -81 -386 0
-17 -81 386 0
81 17 386 0
-15 79 -387 0
15 -79 -387 0
-15 -79 387 0
15 79 387 0
-13 77 -388 0
13 -77 -388 0
-13 -77 388 0
77 13 388 0
75 -11 -389 0
-75 11 -389 0
-75 -11 389 0
75 11 389 0
73 -9 -390 0
9 -73 -390 0
-73 -9 390 0
73 9 390 0
-7 71 -391 0
-71 7 -391 0
-7 -71 391 0
71 7 391 0
69 -5 -392 0
-69 5 -392 0
-69 -5 392 0
69 5 392 0
67 -3 -393 0
3 -67 -393 0
-3 -67 393 0
67 3 393 0
65 -1 -394 0
1 -65 -394 0
-65 -1 394 0
65 1 394 0
394 395 0
393 395 0
392 395 0
391 395 0
390 395 0
389 395 0
388 395 0
387 395 0
386 395 0
385 395 0
384 395 0
383 395 0
382 395 0
381 395 0
380 395 0
379 395 0
378 395 0
377 395 0
376 395 0
375 395 0
374 395 0
373 395 0
372 395 0
371 395 0
370 395 0
369 395 0
368 395 0
367 395 0
366 395 0
365 395 0
364 395 0
363 395 0
-363 -364 -365 -366 -367 -368 -369 -370 -371 -372 -373 -374 -375 -376 -377 -378 -379 -380 -381 -382 -383 -384 -385 -386 -387 -388 -389 -390 -391 -392 -393 -394 -395 0
257 -395 0
131 -3 0
-131 3 0
133 -5 0
5 -133 0
135 -7 0
-135 7 0
137 -9 0
-137 9 0
139 -11 0
-139 11 0
141 -13 0
-141 13 0
143 -15 0
15 -143 0
145 -17 0
-145 17 0
147 -19 0
19 -147 0
149 -21 0
-149 21 0
151 -23 0
-151 23 0
153 -25 0
-153 25 0
155 -27 0
-155 27 0
157 -29 0
-157 29 0
159 -31 0
-159 31 0
161 -33 0
33 -161 0
163 -35 0
-163 35 0
165 -37 0
-165 37 0
167 -39 0
-167 39 0
169 -41 0
41 -169 0
171 -43 0
43 -171 0
173 -45 0
-173 45 0
175 -47 0
-175 47 0
177 -49 0
49 -177 0
179 -51 0
-179 51 0
181 -53 0
-181 53 0
183 -55 0
-183 55 0
185 -57 0
57 -185 0
187 -59 0
59 -187 0
189 -61 0
61 -189 0
191 -63 0
63 -191 0
-195 0
-197 0
-199 0
-201 0
-203 0
-205 0
-207 0
-209 0
-211 0
-213 0
-215 0
-217 0
-219 0
-221 0
-223 0
-225 0
-227 0
-229 0
-231 0
-233 0
-235 0
-237 0
-239 0
-241 0
-243 0
-245 0
-247 0
-249 0
-251 0
-253 0
-255 0
